p cnf 280 3064
1 2 3 4 5 6 7 0
8 9 10 11 12 13 14 0
15 16 17 18 19 20 21 0
22 23 24 25 26 27 28 0
29 30 31 32 33 34 35 0
36 37 38 39 40 41 42 0
43 44 45 46 47 48 49 0
50 51 52 53 54 55 56 0
57 58 59 60 61 62 63 0
64 65 66 67 68 69 70 0
71 72 73 74 75 76 77 0
78 79 80 81 82 83 84 0
85 86 87 88 89 90 91 0
92 93 94 95 96 97 98 0
99 100 101 102 103 104 105 0
106 107 108 109 110 111 112 0
113 114 115 116 117 118 119 0
120 121 122 123 124 125 126 0
127 128 129 130 131 132 133 0
134 135 136 137 138 139 140 0
141 142 143 144 145 146 147 0
148 149 150 151 152 153 154 0
155 156 157 158 159 160 161 0
162 163 164 165 166 167 168 0
169 170 171 172 173 174 175 0
176 177 178 179 180 181 182 0
183 184 185 186 187 188 189 0
190 191 192 193 194 195 196 0
197 198 199 200 201 202 203 0
204 205 206 207 208 209 210 0
211 212 213 214 215 216 217 0
218 219 220 221 222 223 224 0
225 226 227 228 229 230 231 0
232 233 234 235 236 237 238 0
239 240 241 242 243 244 245 0
246 247 248 249 250 251 252 0
253 254 255 256 257 258 259 0
260 261 262 263 264 265 266 0
267 268 269 270 271 272 273 0
274 275 276 277 278 279 280 0
-1 -2 0
-1 -3 0
-1 -4 0
-1 -5 0
-1 -6 0
-1 -7 0
-2 -3 0
-2 -4 0
-2 -5 0
-2 -6 0
-2 -7 0
-3 -4 0
-3 -5 0
-3 -6 0
-3 -7 0
-4 -5 0
-4 -6 0
-4 -7 0
-5 -6 0
-5 -7 0
-6 -7 0
-8 -9 0
-8 -10 0
-8 -11 0
-8 -12 0
-8 -13 0
-8 -14 0
-9 -10 0
-9 -11 0
-9 -12 0
-9 -13 0
-9 -14 0
-10 -11 0
-10 -12 0
-10 -13 0
-10 -14 0
-11 -12 0
-11 -13 0
-11 -14 0
-12 -13 0
-12 -14 0
-13 -14 0
-15 -16 0
-15 -17 0
-15 -18 0
-15 -19 0
-15 -20 0
-15 -21 0
-16 -17 0
-16 -18 0
-16 -19 0
-16 -20 0
-16 -21 0
-17 -18 0
-17 -19 0
-17 -20 0
-17 -21 0
-18 -19 0
-18 -20 0
-18 -21 0
-19 -20 0
-19 -21 0
-20 -21 0
-22 -23 0
-22 -24 0
-22 -25 0
-22 -26 0
-22 -27 0
-22 -28 0
-23 -24 0
-23 -25 0
-23 -26 0
-23 -27 0
-23 -28 0
-24 -25 0
-24 -26 0
-24 -27 0
-24 -28 0
-25 -26 0
-25 -27 0
-25 -28 0
-26 -27 0
-26 -28 0
-27 -28 0
-29 -30 0
-29 -31 0
-29 -32 0
-29 -33 0
-29 -34 0
-29 -35 0
-30 -31 0
-30 -32 0
-30 -33 0
-30 -34 0
-30 -35 0
-31 -32 0
-31 -33 0
-31 -34 0
-31 -35 0
-32 -33 0
-32 -34 0
-32 -35 0
-33 -34 0
-33 -35 0
-34 -35 0
-36 -37 0
-36 -38 0
-36 -39 0
-36 -40 0
-36 -41 0
-36 -42 0
-37 -38 0
-37 -39 0
-37 -40 0
-37 -41 0
-37 -42 0
-38 -39 0
-38 -40 0
-38 -41 0
-38 -42 0
-39 -40 0
-39 -41 0
-39 -42 0
-40 -41 0
-40 -42 0
-41 -42 0
-43 -44 0
-43 -45 0
-43 -46 0
-43 -47 0
-43 -48 0
-43 -49 0
-44 -45 0
-44 -46 0
-44 -47 0
-44 -48 0
-44 -49 0
-45 -46 0
-45 -47 0
-45 -48 0
-45 -49 0
-46 -47 0
-46 -48 0
-46 -49 0
-47 -48 0
-47 -49 0
-48 -49 0
-50 -51 0
-50 -52 0
-50 -53 0
-50 -54 0
-50 -55 0
-50 -56 0
-51 -52 0
-51 -53 0
-51 -54 0
-51 -55 0
-51 -56 0
-52 -53 0
-52 -54 0
-52 -55 0
-52 -56 0
-53 -54 0
-53 -55 0
-53 -56 0
-54 -55 0
-54 -56 0
-55 -56 0
-57 -58 0
-57 -59 0
-57 -60 0
-57 -61 0
-57 -62 0
-57 -63 0
-58 -59 0
-58 -60 0
-58 -61 0
-58 -62 0
-58 -63 0
-59 -60 0
-59 -61 0
-59 -62 0
-59 -63 0
-60 -61 0
-60 -62 0
-60 -63 0
-61 -62 0
-61 -63 0
-62 -63 0
-64 -65 0
-64 -66 0
-64 -67 0
-64 -68 0
-64 -69 0
-64 -70 0
-65 -66 0
-65 -67 0
-65 -68 0
-65 -69 0
-65 -70 0
-66 -67 0
-66 -68 0
-66 -69 0
-66 -70 0
-67 -68 0
-67 -69 0
-67 -70 0
-68 -69 0
-68 -70 0
-69 -70 0
-71 -72 0
-71 -73 0
-71 -74 0
-71 -75 0
-71 -76 0
-71 -77 0
-72 -73 0
-72 -74 0
-72 -75 0
-72 -76 0
-72 -77 0
-73 -74 0
-73 -75 0
-73 -76 0
-73 -77 0
-74 -75 0
-74 -76 0
-74 -77 0
-75 -76 0
-75 -77 0
-76 -77 0
-78 -79 0
-78 -80 0
-78 -81 0
-78 -82 0
-78 -83 0
-78 -84 0
-79 -80 0
-79 -81 0
-79 -82 0
-79 -83 0
-79 -84 0
-80 -81 0
-80 -82 0
-80 -83 0
-80 -84 0
-81 -82 0
-81 -83 0
-81 -84 0
-82 -83 0
-82 -84 0
-83 -84 0
-85 -86 0
-85 -87 0
-85 -88 0
-85 -89 0
-85 -90 0
-85 -91 0
-86 -87 0
-86 -88 0
-86 -89 0
-86 -90 0
-86 -91 0
-87 -88 0
-87 -89 0
-87 -90 0
-87 -91 0
-88 -89 0
-88 -90 0
-88 -91 0
-89 -90 0
-89 -91 0
-90 -91 0
-92 -93 0
-92 -94 0
-92 -95 0
-92 -96 0
-92 -97 0
-92 -98 0
-93 -94 0
-93 -95 0
-93 -96 0
-93 -97 0
-93 -98 0
-94 -95 0
-94 -96 0
-94 -97 0
-94 -98 0
-95 -96 0
-95 -97 0
-95 -98 0
-96 -97 0
-96 -98 0
-97 -98 0
-99 -100 0
-99 -101 0
-99 -102 0
-99 -103 0
-99 -104 0
-99 -105 0
-100 -101 0
-100 -102 0
-100 -103 0
-100 -104 0
-100 -105 0
-101 -102 0
-101 -103 0
-101 -104 0
-101 -105 0
-102 -103 0
-102 -104 0
-102 -105 0
-103 -104 0
-103 -105 0
-104 -105 0
-106 -107 0
-106 -108 0
-106 -109 0
-106 -110 0
-106 -111 0
-106 -112 0
-107 -108 0
-107 -109 0
-107 -110 0
-107 -111 0
-107 -112 0
-108 -109 0
-108 -110 0
-108 -111 0
-108 -112 0
-109 -110 0
-109 -111 0
-109 -112 0
-110 -111 0
-110 -112 0
-111 -112 0
-113 -114 0
-113 -115 0
-113 -116 0
-113 -117 0
-113 -118 0
-113 -119 0
-114 -115 0
-114 -116 0
-114 -117 0
-114 -118 0
-114 -119 0
-115 -116 0
-115 -117 0
-115 -118 0
-115 -119 0
-116 -117 0
-116 -118 0
-116 -119 0
-117 -118 0
-117 -119 0
-118 -119 0
-120 -121 0
-120 -122 0
-120 -123 0
-120 -124 0
-120 -125 0
-120 -126 0
-121 -122 0
-121 -123 0
-121 -124 0
-121 -125 0
-121 -126 0
-122 -123 0
-122 -124 0
-122 -125 0
-122 -126 0
-123 -124 0
-123 -125 0
-123 -126 0
-124 -125 0
-124 -126 0
-125 -126 0
-127 -128 0
-127 -129 0
-127 -130 0
-127 -131 0
-127 -132 0
-127 -133 0
-128 -129 0
-128 -130 0
-128 -131 0
-128 -132 0
-128 -133 0
-129 -130 0
-129 -131 0
-129 -132 0
-129 -133 0
-130 -131 0
-130 -132 0
-130 -133 0
-131 -132 0
-131 -133 0
-132 -133 0
-134 -135 0
-134 -136 0
-134 -137 0
-134 -138 0
-134 -139 0
-134 -140 0
-135 -136 0
-135 -137 0
-135 -138 0
-135 -139 0
-135 -140 0
-136 -137 0
-136 -138 0
-136 -139 0
-136 -140 0
-137 -138 0
-137 -139 0
-137 -140 0
-138 -139 0
-138 -140 0
-139 -140 0
-141 -142 0
-141 -143 0
-141 -144 0
-141 -145 0
-141 -146 0
-141 -147 0
-142 -143 0
-142 -144 0
-142 -145 0
-142 -146 0
-142 -147 0
-143 -144 0
-143 -145 0
-143 -146 0
-143 -147 0
-144 -145 0
-144 -146 0
-144 -147 0
-145 -146 0
-145 -147 0
-146 -147 0
-148 -149 0
-148 -150 0
-148 -151 0
-148 -152 0
-148 -153 0
-148 -154 0
-149 -150 0
-149 -151 0
-149 -152 0
-149 -153 0
-149 -154 0
-150 -151 0
-150 -152 0
-150 -153 0
-150 -154 0
-151 -152 0
-151 -153 0
-151 -154 0
-152 -153 0
-152 -154 0
-153 -154 0
-155 -156 0
-155 -157 0
-155 -158 0
-155 -159 0
-155 -160 0
-155 -161 0
-156 -157 0
-156 -158 0
-156 -159 0
-156 -160 0
-156 -161 0
-157 -158 0
-157 -159 0
-157 -160 0
-157 -161 0
-158 -159 0
-158 -160 0
-158 -161 0
-159 -160 0
-159 -161 0
-160 -161 0
-162 -163 0
-162 -164 0
-162 -165 0
-162 -166 0
-162 -167 0
-162 -168 0
-163 -164 0
-163 -165 0
-163 -166 0
-163 -167 0
-163 -168 0
-164 -165 0
-164 -166 0
-164 -167 0
-164 -168 0
-165 -166 0
-165 -167 0
-165 -168 0
-166 -167 0
-166 -168 0
-167 -168 0
-169 -170 0
-169 -171 0
-169 -172 0
-169 -173 0
-169 -174 0
-169 -175 0
-170 -171 0
-170 -172 0
-170 -173 0
-170 -174 0
-170 -175 0
-171 -172 0
-171 -173 0
-171 -174 0
-171 -175 0
-172 -173 0
-172 -174 0
-172 -175 0
-173 -174 0
-173 -175 0
-174 -175 0
-176 -177 0
-176 -178 0
-176 -179 0
-176 -180 0
-176 -181 0
-176 -182 0
-177 -178 0
-177 -179 0
-177 -180 0
-177 -181 0
-177 -182 0
-178 -179 0
-178 -180 0
-178 -181 0
-178 -182 0
-179 -180 0
-179 -181 0
-179 -182 0
-180 -181 0
-180 -182 0
-181 -182 0
-183 -184 0
-183 -185 0
-183 -186 0
-183 -187 0
-183 -188 0
-183 -189 0
-184 -185 0
-184 -186 0
-184 -187 0
-184 -188 0
-184 -189 0
-185 -186 0
-185 -187 0
-185 -188 0
-185 -189 0
-186 -187 0
-186 -188 0
-186 -189 0
-187 -188 0
-187 -189 0
-188 -189 0
-190 -191 0
-190 -192 0
-190 -193 0
-190 -194 0
-190 -195 0
-190 -196 0
-191 -192 0
-191 -193 0
-191 -194 0
-191 -195 0
-191 -196 0
-192 -193 0
-192 -194 0
-192 -195 0
-192 -196 0
-193 -194 0
-193 -195 0
-193 -196 0
-194 -195 0
-194 -196 0
-195 -196 0
-197 -198 0
-197 -199 0
-197 -200 0
-197 -201 0
-197 -202 0
-197 -203 0
-198 -199 0
-198 -200 0
-198 -201 0
-198 -202 0
-198 -203 0
-199 -200 0
-199 -201 0
-199 -202 0
-199 -203 0
-200 -201 0
-200 -202 0
-200 -203 0
-201 -202 0
-201 -203 0
-202 -203 0
-204 -205 0
-204 -206 0
-204 -207 0
-204 -208 0
-204 -209 0
-204 -210 0
-205 -206 0
-205 -207 0
-205 -208 0
-205 -209 0
-205 -210 0
-206 -207 0
-206 -208 0
-206 -209 0
-206 -210 0
-207 -208 0
-207 -209 0
-207 -210 0
-208 -209 0
-208 -210 0
-209 -210 0
-211 -212 0
-211 -213 0
-211 -214 0
-211 -215 0
-211 -216 0
-211 -217 0
-212 -213 0
-212 -214 0
-212 -215 0
-212 -216 0
-212 -217 0
-213 -214 0
-213 -215 0
-213 -216 0
-213 -217 0
-214 -215 0
-214 -216 0
-214 -217 0
-215 -216 0
-215 -217 0
-216 -217 0
-218 -219 0
-218 -220 0
-218 -221 0
-218 -222 0
-218 -223 0
-218 -224 0
-219 -220 0
-219 -221 0
-219 -222 0
-219 -223 0
-219 -224 0
-220 -221 0
-220 -222 0
-220 -223 0
-220 -224 0
-221 -222 0
-221 -223 0
-221 -224 0
-222 -223 0
-222 -224 0
-223 -224 0
-225 -226 0
-225 -227 0
-225 -228 0
-225 -229 0
-225 -230 0
-225 -231 0
-226 -227 0
-226 -228 0
-226 -229 0
-226 -230 0
-226 -231 0
-227 -228 0
-227 -229 0
-227 -230 0
-227 -231 0
-228 -229 0
-228 -230 0
-228 -231 0
-229 -230 0
-229 -231 0
-230 -231 0
-232 -233 0
-232 -234 0
-232 -235 0
-232 -236 0
-232 -237 0
-232 -238 0
-233 -234 0
-233 -235 0
-233 -236 0
-233 -237 0
-233 -238 0
-234 -235 0
-234 -236 0
-234 -237 0
-234 -238 0
-235 -236 0
-235 -237 0
-235 -238 0
-236 -237 0
-236 -238 0
-237 -238 0
-239 -240 0
-239 -241 0
-239 -242 0
-239 -243 0
-239 -244 0
-239 -245 0
-240 -241 0
-240 -242 0
-240 -243 0
-240 -244 0
-240 -245 0
-241 -242 0
-241 -243 0
-241 -244 0
-241 -245 0
-242 -243 0
-242 -244 0
-242 -245 0
-243 -244 0
-243 -245 0
-244 -245 0
-246 -247 0
-246 -248 0
-246 -249 0
-246 -250 0
-246 -251 0
-246 -252 0
-247 -248 0
-247 -249 0
-247 -250 0
-247 -251 0
-247 -252 0
-248 -249 0
-248 -250 0
-248 -251 0
-248 -252 0
-249 -250 0
-249 -251 0
-249 -252 0
-250 -251 0
-250 -252 0
-251 -252 0
-253 -254 0
-253 -255 0
-253 -256 0
-253 -257 0
-253 -258 0
-253 -259 0
-254 -255 0
-254 -256 0
-254 -257 0
-254 -258 0
-254 -259 0
-255 -256 0
-255 -257 0
-255 -258 0
-255 -259 0
-256 -257 0
-256 -258 0
-256 -259 0
-257 -258 0
-257 -259 0
-258 -259 0
-260 -261 0
-260 -262 0
-260 -263 0
-260 -264 0
-260 -265 0
-260 -266 0
-261 -262 0
-261 -263 0
-261 -264 0
-261 -265 0
-261 -266 0
-262 -263 0
-262 -264 0
-262 -265 0
-262 -266 0
-263 -264 0
-263 -265 0
-263 -266 0
-264 -265 0
-264 -266 0
-265 -266 0
-267 -268 0
-267 -269 0
-267 -270 0
-267 -271 0
-267 -272 0
-267 -273 0
-268 -269 0
-268 -270 0
-268 -271 0
-268 -272 0
-268 -273 0
-269 -270 0
-269 -271 0
-269 -272 0
-269 -273 0
-270 -271 0
-270 -272 0
-270 -273 0
-271 -272 0
-271 -273 0
-272 -273 0
-274 -275 0
-274 -276 0
-274 -277 0
-274 -278 0
-274 -279 0
-274 -280 0
-275 -276 0
-275 -277 0
-275 -278 0
-275 -279 0
-275 -280 0
-276 -277 0
-276 -278 0
-276 -279 0
-276 -280 0
-277 -278 0
-277 -279 0
-277 -280 0
-278 -279 0
-278 -280 0
-279 -280 0
-2 -10 0
-5 -9 0
-3 -13 0
-7 -13 0
-4 -19 0
-2 -17 0
-7 -20 0
-2 -18 0
-1 -35 0
-1 -29 0
-4 -34 0
-3 -33 0
-4 -57 0
-2 -59 0
-5 -63 0
-1 -61 0
-3 -70 0
-4 -69 0
-7 -67 0
-3 -68 0
-1 -71 0
-7 -75 0
-5 -71 0
-7 -76 0
-7 -78 0
-4 -79 0
-4 -82 0
-3 -79 0
-3 -88 0
-1 -86 0
-1 -89 0
-5 -89 0
-7 -92 0
-1 -93 0
-2 -98 0
-7 -93 0
-5 -99 0
-3 -104 0
-1 -104 0
-2 -103 0
-2 -110 0
-1 -110 0
-7 -111 0
-7 -110 0
-6 -119 0
-6 -115 0
-3 -118 0
-3 -119 0
-1 -120 0
-4 -121 0
-5 -126 0
-7 -120 0
-2 -131 0
-7 -127 0
-5 -127 0
-1 -132 0
-1 -151 0
-5 -151 0
-2 -148 0
-1 -153 0
-1 -161 0
-4 -158 0
-5 -157 0
-6 -158 0
-7 -168 0
-2 -167 0
-2 -165 0
-1 -163 0
-7 -171 0
-2 -169 0
-7 -173 0
-2 -174 0
-6 -182 0
-5 -182 0
-6 -181 0
-4 -176 0
-5 -183 0
-3 -185 0
-7 -188 0
-2 -183 0
-2 -195 0
-7 -196 0
-1 -196 0
-4 -194 0
-7 -202 0
-6 -202 0
-2 -197 0
-6 -199 0
-4 -204 0
-3 -206 0
-4 -205 0
-5 -205 0
-5 -211 0
-2 -211 0
-4 -216 0
-4 -215 0
-5 -231 0
-6 -230 0
-6 -229 0
-3 -226 0
-2 -239 0
-7 -240 0
-6 -244 0
-3 -244 0
-6 -248 0
-4 -249 0
-4 -248 0
-7 -248 0
-6 -257 0
-3 -253 0
-4 -258 0
-2 -254 0
-6 -271 0
-1 -268 0
-3 -267 0
-5 -272 0
-2 -277 0
-5 -274 0
-5 -275 0
-2 -274 0
-12 -15 0
-13 -21 0
-11 -20 0
-12 -18 0
-8 -28 0
-10 -24 0
-8 -22 0
-13 -28 0
-9 -35 0
-9 -30 0
-13 -31 0
-11 -32 0
-14 -42 0
-10 -39 0
-13 -41 0
-8 -42 0
-8 -44 0
-11 -49 0
-10 -44 0
-13 -44 0
-12 -56 0
-11 -53 0
-10 -51 0
-9 -50 0
-14 -60 0
-12 -62 0
-12 -59 0
-8 -57 0
-14 -75 0
-14 -72 0
-8 -74 0
-12 -76 0
-12 -81 0
-12 -80 0
-14 -83 0
-10 -82 0
-9 -85 0
-11 -86 0
-9 -91 0
-14 -85 0
-9 -97 0
-8 -92 0
-14 -92 0
-12 -92 0
-11 -105 0
-10 -105 0
-14 -103 0
-13 -105 0
-14 -114 0
-11 -118 0
-12 -114 0
-14 -117 0
-12 -130 0
-11 -131 0
-13 -127 0
-14 -128 0
-13 -139 0
-11 -135 0
-9 -138 0
-12 -140 0
-12 -144 0
-11 -141 0
-10 -141 0
-12 -143 0
-9 -163 0
-14 -167 0
-14 -168 0
-12 -164 0
-14 -170 0
-14 -175 0
-10 -173 0
-12 -174 0
-10 -182 0
-9 -181 0
-10 -181 0
-12 -177 0
-13 -192 0
-13 -196 0
-8 -193 0
-8 -196 0
-10 -200 0
-12 -199 0
-9 -201 0
-10 -199 0
-10 -210 0
-8 -208 0
-11 -206 0
-14 -207 0
-13 -228 0
-11 -231 0
-12 -229 0
-12 -227 0
-9 -236 0
-13 -236 0
-9 -237 0
-9 -234 0
-12 -239 0
-9 -241 0
-10 -244 0
-9 -240 0
-10 -248 0
-13 -251 0
-13 -248 0
-11 -248 0
-14 -261 0
-10 -264 0
-13 -263 0
-8 -263 0
-8 -277 0
-13 -279 0
-8 -278 0
-9 -277 0
-17 -36 0
-19 -40 0
-20 -42 0
-20 -38 0
-18 -44 0
-16 -46 0
-18 -48 0
-17 -43 0
-20 -58 0
-16 -58 0
-17 -61 0
-18 -59 0
-19 -69 0
-17 -70 0
-17 -64 0
-16 -64 0
-21 -73 0
-18 -71 0
-17 -74 0
-16 -74 0
-15 -83 0
-17 -82 0
-20 -84 0
-20 -79 0
-17 -98 0
-16 -92 0
-20 -94 0
-15 -97 0
-20 -109 0
-15 -109 0
-21 -107 0
-19 -110 0
-21 -130 0
-19 -128 0
-20 -131 0
-17 -128 0
-19 -140 0
-18 -135 0
-21 -140 0
-17 -136 0
-20 -144 0
-20 -142 0
-16 -145 0
-19 -144 0
-15 -160 0
-16 -157 0
-17 -160 0
-19 -156 0
-20 -175 0
-15 -169 0
-16 -173 0
-19 -171 0
-18 -189 0
-16 -186 0
-17 -185 0
-19 -184 0
-16 -196 0
-15 -191 0
-21 -192 0
-17 -192 0
-21 -209 0
-19 -210 0
-20 -210 0
-15 -204 0
-15 -215 0
-16 -211 0
-17 -212 0
-21 -217 0
-21 -223 0
-18 -224 0
-19 -224 0
-18 -218 0
-20 -226 0
-21 -228 0
-18 -230 0
-15 -225 0
-15 -233 0
-18 -237 0
-21 -235 0
-16 -236 0
-18 -240 0
-19 -245 0
-17 -243 0
-16 -242 0
-18 -253 0
-19 -256 0
-19 -253 0
-17 -257 0
-22 -35 0
-25 -35 0
-26 -30 0
-27 -30 0
-22 -40 0
-24 -39 0
-28 -36 0
-27 -40 0
-24 -46 0
-23 -49 0
-28 -46 0
-27 -47 0
-28 -53 0
-22 -56 0
-28 -56 0
-22 -55 0
-23 -67 0
-28 -67 0
-28 -70 0
-28 -64 0
-23 -71 0
-27 -77 0
-28 -77 0
-26 -73 0
-22 -79 0
-23 -79 0
-28 -81 0
-22 -82 0
-26 -91 0
-24 -86 0
-22 -89 0
-27 -86 0
-28 -109 0
-23 -106 0
-27 -106 0
-25 -106 0
-27 -123 0
-28 -122 0
-26 -121 0
-26 -123 0
-23 -128 0
-23 -127 0
-25 -128 0
-22 -131 0
-25 -153 0
-22 -152 0
-27 -153 0
-25 -148 0
-23 -162 0
-25 -163 0
-23 -164 0
-23 -168 0
-25 -174 0
-25 -170 0
-28 -174 0
-23 -169 0
-23 -180 0
-24 -182 0
-22 -179 0
-25 -178 0
-24 -187 0
-27 -188 0
-23 -188 0
-24 -185 0
-24 -190 0
-27 -195 0
-22 -190 0
-27 -193 0
-28 -198 0
-22 -197 0
-27 -201 0
-22 -200 0
-27 -210 0
-26 -207 0
-26 -204 0
-28 -204 0
-27 -217 0
-26 -217 0
-23 -211 0
-28 -212 0
-23 -221 0
-28 -222 0
-24 -221 0
-27 -220 0
-27 -227 0
-28 -226 0
-23 -228 0
-25 -230 0
-22 -232 0
-25 -236 0
-28 -234 0
-28 -238 0
-28 -240 0
-25 -242 0
-27 -242 0
-27 -240 0
-27 -255 0
-22 -258 0
-24 -255 0
-24 -258 0
-26 -280 0
-24 -275 0
-22 -279 0
-22 -274 0
-30 -39 0
-29 -39 0
-30 -36 0
-30 -40 0
-29 -43 0
-35 -49 0
-31 -48 0
-35 -45 0
-35 -51 0
-33 -50 0
-34 -53 0
-30 -54 0
-29 -74 0
-33 -76 0
-33 -73 0
-34 -72 0
-35 -84 0
-33 -83 0
-29 -81 0
-32 -81 0
-32 -88 0
-29 -89 0
-35 -90 0
-30 -88 0
-32 -95 0
-30 -92 0
-30 -93 0
-32 -93 0
-33 -99 0
-33 -101 0
-35 -102 0
-30 -105 0
-32 -119 0
-34 -114 0
-32 -116 0
-33 -119 0
-30 -124 0
-34 -125 0
-34 -121 0
-32 -124 0
-34 -128 0
-29 -127 0
-30 -132 0
-33 -127 0
-35 -135 0
-32 -140 0
-30 -137 0
-29 -135 0
-32 -147 0
-34 -146 0
-30 -143 0
-31 -147 0
-33 -162 0
-34 -164 0
-32 -163 0
-30 -165 0
-32 -178 0
-33 -176 0
-29 -176 0
-29 -180 0
-31 -185 0
-32 -184 0
-31 -188 0
-33 -189 0
-29 -206 0
-32 -205 0
-32 -206 0
-29 -204 0
-29 -229 0
-33 -228 0
-34 -229 0
-31 -228 0
-29 -242 0
-35 -241 0
-35 -243 0
-31 -242 0
-30 -257 0
-31 -255 0
-32 -255 0
-33 -257 0
-29 -262 0
-30 -260 0
-33 -262 0
-35 -263 0
-31 -269 0
-33 -270 0
-29 -269 0
-34 -273 0
-30 -274 0
-33 -279 0
-29 -278 0
-30 -280 0
-38 -46 0
-38 -48 0
-39 -43 0
-38 -45 0
-36 -54 0
-37 -51 0
-38 -55 0
-40 -50 0
-41 -69 0
-42 -65 0
-42 -69 0
-41 -65 0
-42 -95 0
-38 -98 0
-40 -98 0
-42 -94 0
-36 -101 0
-40 -104 0
-38 -103 0
-39 -103 0
-38 -106 0
-39 -112 0
-36 -110 0
-36 -112 0
-39 -115 0
-38 -117 0
-37 -114 0
-40 -115 0
-38 -123 0
-41 -120 0
-40 -124 0
-42 -123 0
-39 -132 0
-38 -128 0
-41 -127 0
-38 -127 0
-41 -152 0
-38 -153 0
-36 -149 0
-37 -149 0
-39 -157 0
-40 -156 0
-40 -157 0
-37 -156 0
-37 -164 0
-39 -164 0
-42 -166 0
-38 -165 0
-39 -173 0
-41 -171 0
-40 -172 0
-37 -170 0
-42 -186 0
-40 -187 0
-41 -184 0
-38 -185 0
-39 -196 0
-40 -193 0
-36 -195 0
-37 -190 0
-42 -199 0
-37 -200 0
-38 -199 0
-37 -198 0
-40 -207 0
-41 -207 0
-37 -206 0
-41 -209 0
-40 -213 0
-37 -215 0
-41 -215 0
-42 -217 0
-42 -218 0
-39 -222 0
-36 -223 0
-40 -219 0
-39 -229 0
-38 -230 0
-39 -225 0
-41 -228 0
-38 -233 0
-41 -232 0
-37 -232 0
-42 -234 0
-38 -239 0
-36 -244 0
-42 -245 0
-42 -243 0
-42 -248 0
-42 -246 0
-36 -250 0
-41 -246 0
-41 -270 0
-39 -271 0
-36 -271 0
-37 -267 0
-36 -280 0
-37 -274 0
-41 -275 0
-40 -275 0
-48 -52 0
-46 -51 0
-47 -52 0
-44 -52 0
-44 -60 0
-45 -61 0
-49 -62 0
-47 -59 0
-45 -69 0
-45 -68 0
-47 -64 0
-49 -64 0
-45 -77 0
-47 -72 0
-46 -75 0
-43 -75 0
-48 -79 0
-44 -78 0
-43 -81 0
-48 -80 0
-47 -119 0
-46 -115 0
-46 -117 0
-44 -116 0
-43 -130 0
-44 -128 0
-44 -130 0
-47 -132 0
-46 -140 0
-46 -139 0
-47 -137 0
-49 -134 0
-45 -142 0
-48 -141 0
-46 -146 0
-49 -143 0
-48 -161 0
-46 -158 0
-46 -160 0
-44 -156 0
-47 -165 0
-43 -163 0
-46 -167 0
-45 -165 0
-49 -171 0
-43 -171 0
-46 -170 0
-49 -174 0
-49 -183 0
-47 -184 0
-48 -185 0
-46 -186 0
-44 -194 0
-44 -195 0
-47 -192 0
-45 -195 0
-47 -214 0
-46 -216 0
-49 -217 0
-44 -212 0
-45 -231 0
-43 -230 0
-48 -229 0
-43 -228 0
-43 -236 0
-44 -233 0
-45 -232 0
-48 -232 0
-44 -252 0
-48 -251 0
-43 -249 0
-47 -251 0
-44 -254 0
-45 -253 0
-43 -254 0
-46 -255 0
-49 -266 0
-44 -260 0
-45 -264 0
-49 -264 0
-43 -268 0
-49 -268 0
-44 -270 0
-45 -271 0
-47 -274 0
-44 -278 0
-48 -275 0
-43 -274 0
-50 -65 0
-56 -66 0
-54 -64 0
-50 -67 0
-50 -71 0
-54 -74 0
-50 -76 0
-53 -75 0
-53 -82 0
-55 -83 0
-54 -81 0
-55 -82 0
-56 -109 0
-53 -112 0
-54 -110 0
-54 -106 0
-50 -123 0
-53 -122 0
-53 -124 0
-54 -122 0
-50 -130 0
-53 -130 0
-50 -128 0
-50 -133 0
-53 -140 0
-54 -140 0
-53 -137 0
-50 -134 0
-55 -144 0
-53 -143 0
-55 -143 0
-54 -145 0
-55 -150 0
-50 -153 0
-56 -148 0
-53 -151 0
-55 -165 0
-50 -167 0
-52 -162 0
-51 -166 0
-53 -175 0
-50 -169 0
-53 -173 0
-55 -170 0
-53 -182 0
-50 -182 0
-52 -177 0
-53 -180 0
-50 -189 0
-56 -185 0
-50 -186 0
-54 -188 0
-53 -195 0
-52 -196 0
-54 -190 0
-55 -191 0
-50 -202 0
-51 -203 0
-50 -203 0
-52 -200 0
-56 -205 0
-51 -208 0
-53 -209 0
-54 -207 0
-50 -215 0
-55 -216 0
-56 -216 0
-55 -212 0
-55 -219 0
-53 -219 0
-55 -218 0
-53 -223 0
-56 -243 0
-56 -241 0
-53 -242 0
-51 -245 0
-55 -256 0
-53 -253 0
-55 -259 0
-51 -256 0
-54 -261 0
-52 -266 0
-50 -261 0
-53 -263 0
-55 -273 0
-50 -270 0
-50 -273 0
-52 -273 0
-51 -278 0
-52 -275 0
-55 -280 0
-51 -274 0
-62 -70 0
-58 -66 0
-59 -69 0
-63 -69 0
-57 -71 0
-58 -74 0
-61 -77 0
-62 -74 0
-63 -81 0
-57 -83 0
-62 -84 0
-62 -83 0
-60 -87 0
-60 -90 0
-57 -89 0
-59 -89 0
-59 -93 0
-57 -98 0
-61 -92 0
-60 -94 0
-58 -109 0
-63 -112 0
-63 -111 0
-57 -112 0
-63 -124 0
-61 -121 0
-59 -124 0
-58 -121 0
-57 -130 0
-63 -129 0
-63 -131 0
-61 -132 0
-61 -135 0
-58 -138 0
-61 -134 0
-57 -138 0
-63 -142 0
-63 -144 0
-59 -145 0
-58 -143 0
-59 -157 0
-61 -156 0
-60 -158 0
-63 -155 0
-60 -163 0
-59 -166 0
-61 -164 0
-59 -163 0
-60 -171 0
-62 -170 0
-63 -173 0
-59 -172 0
-60 -178 0
-57 -182 0
-58 -181 0
-59 -177 0
-59 -200 0
-62 -202 0
-62 -198 0
-61 -200 0
-60 -209 0
-57 -208 0
-62 -206 0
-58 -204 0
-60 -216 0
-58 -214 0
-63 -213 0
-63 -216 0
-58 -230 0
-63 -225 0
-60 -226 0
-62 -227 0
-62 -233 0
-61 -237 0
-60 -236 0
-60 -237 0
-58 -240 0
-57 -239 0
-58 -243 0
-58 -245 0
-57 -248 0
-61 -247 0
-63 -251 0
-57 -252 0
-60 -265 0
-63 -264 0
-58 -263 0
-59 -263 0
-67 -83 0
-65 -78 0
-68 -82 0
-67 -80 0
-69 -89 0
-69 -88 0
-67 -88 0
-69 -90 0
-67 -105 0
-70 -101 0
-68 -103 0
-66 -101 0
-69 -112 0
-68 -112 0
-66 -106 0
-65 -109 0
-68 -115 0
-68 -114 0
-67 -118 0
-70 -115 0
-66 -120 0
-68 -122 0
-67 -125 0
-65 -122 0
-66 -132 0
-68 -128 0
-64 -132 0
-68 -132 0
-64 -136 0
-69 -138 0
-69 -136 0
-70 -134 0
-67 -145 0
-68 -144 0
-70 -142 0
-70 -144 0
-68 -154 0
-67 -151 0
-70 -153 0
-68 -153 0
-66 -172 0
-70 -171 0
-65 -170 0
-70 -170 0
-66 -180 0
-68 -176 0
-67 -177 0
-67 -176 0
-70 -183 0
-69 -184 0
-64 -183 0
-65 -183 0
-66 -193 0
-69 -196 0
-66 -195 0
-64 -194 0
-70 -206 0
-67 -209 0
-64 -210 0
-70 -204 0
-66 -217 0
-69 -215 0
-64 -217 0
-66 -211 0
-68 -221 0
-70 -224 0
-68 -222 0
-69 -220 0
-70 -226 0
-69 -231 0
-70 -231 0
-67 -230 0
-64 -233 0
-66 -235 0
-68 -233 0
-65 -232 0
-66 -241 0
-70 -243 0
-69 -239 0
-69 -244 0
-67 -247 0
-67 -250 0
-70 -249 0
-69 -249 0
-69 -267 0
-69 -273 0
-68 -273 0
-68 -269 0
-77 -81 0
-77 -84 0
-71 -79 0
-74 -82 0
-74 -85 0
-76 -87 0
-74 -89 0
-73 -88 0
-75 -104 0
-71 -102 0
-75 -99 0
-71 -103 0
-71 -107 0
-72 -109 0
-71 -108 0
-71 -106 0
-71 -115 0
-75 -118 0
-75 -116 0
-75 -117 0
-77 -123 0
-71 -125 0
-76 -125 0
-71 -120 0
-71 -144 0
-76 -146 0
-74 -146 0
-73 -142 0
-75 -154 0
-73 -151 0
-75 -153 0
-75 -152 0
-77 -167 0
-74 -163 0
-76 -166 0
-74 -164 0
-73 -176 0
-72 -181 0
-76 -181 0
-72 -182 0
-76 -201 0
-76 -200 0
-73 -197 0
-72 -198 0
-76 -218 0
-77 -220 0
-72 -221 0
-75 -223 0
-71 -226 0
-71 -231 0
-76 -230 0
-74 -228 0
-72 -235 0
-74 -233 0
-75 -235 0
-76 -232 0
-75 -239 0
-73 -240 0
-76 -240 0
-73 -245 0
-77 -251 0
-75 -251 0
-75 -252 0
-71 -248 0
-73 -280 0
-76 -274 0
-73 -277 0
-75 -279 0
-81 -97 0
-83 -92 0
-79 -92 0
-83 -97 0
-81 -121 0
-83 -124 0
-83 -126 0
-81 -124 0
-79 -128 0
-80 -132 0
-80 -128 0
-84 -133 0
-83 -137 0
-78 -137 0
-81 -137 0
-79 -134 0
-79 -147 0
-81 -144 0
-83 -143 0
-81 -147 0
-84 -153 0
-84 -154 0
-83 -148 0
-80 -151 0
-83 -159 0
-81 -159 0
-82 -155 0
-81 -160 0
-78 -165 0
-82 -168 0
-83 -167 0
-83 -166 0
-80 -177 0
-81 -182 0
-83 -181 0
-78 -179 0
-80 -185 0
-82 -185 0
-84 -184 0
-80 -187 0
-83 -196 0
-81 -194 0
-83 -195 0
-82 -195 0
-82 -203 0
-83 -202 0
-83 -203 0
-79 -197 0
-79 -204 0
-82 -204 0
-80 -206 0
-83 -206 0
-82 -213 0
-80 -216 0
-79 -215 0
-79 -212 0
-81 -226 0
-83 -230 0
-79 -227 0
-83 -225 0
-79 -232 0
-82 -235 0
-80 -232 0
-83 -237 0
-81 -243 0
-83 -245 0
-79 -240 0
-84 -241 0
-81 -251 0
-78 -252 0
-82 -251 0
-78 -250 0
-79 -256 0
-83 -254 0
-79 -254 0
-81 -259 0
-80 -263 0
-81 -262 0
-83 -266 0
-83 -261 0
-82 -268 0
-80 -270 0
-79 -271 0
-81 -271 0
-80 -274 0
-79 -274 0
-80 -275 0
-84 -274 0
-86 -102 0
-86 -100 0
-87 -99 0
-91 -102 0
-87 -111 0
-88 -106 0
-85 -109 0
-91 -112 0
-91 -114 0
-90 -117 0
-85 -118 0
-86 -116 0
-89 -123 0
-88 -121 0
-90 -126 0
-85 -124 0
-90 -143 0
-87 -143 0
-88 -143 0
-85 -142 0
-90 -161 0
-89 -155 0
-88 -156 0
-91 -157 0
-91 -173 0
-87 -175 0
-90 -174 0
-86 -169 0
-88 -176 0
-88 -179 0
-90 -177 0
-90 -181 0
-91 -202 0
-89 -197 0
-85 -201 0
-89 -203 0
-88 -210 0
-85 -204 0
-86 -204 0
-89 -206 0
-88 -226 0
-91 -229 0
-89 -226 0
-86 -225 0
-87 -235 0
-85 -238 0
-89 -235 0
-88 -233 0
-87 -241 0
-89 -239 0
-90 -239 0
-88 -242 0
-91 -246 0
-86 -252 0
-86 -251 0
-89 -248 0
-88 -255 0
-91 -258 0
-86 -259 0
-87 -255 0
-85 -266 0
-86 -263 0
-90 -266 0
-87 -261 0
-89 -268 0
-85 -267 0
-88 -268 0
-87 -270 0
-91 -276 0
-87 -274 0
-86 -279 0
-87 -279 0
-92 -103 0
-94 -99 0
-98 -105 0
-93 -103 0
-92 -107 0
-95 -111 0
-94 -108 0
-98 -112 0
-97 -118 0
-97 -117 0
-98 -115 0
-95 -119 0
-98 -121 0
-95 -125 0
-94 -123 0
-94 -126 0
-97 -128 0
-93 -133 0
-92 -130 0
-97 -129 0
-94 -140 0
-94 -139 0
-98 -138 0
-95 -139 0
-94 -147 0
-96 -142 0
-92 -146 0
-92 -142 0
-93 -158 0
-95 -155 0
-92 -157 0
-98 -157 0
-98 -168 0
-95 -164 0
-96 -165 0
-96 -163 0
-95 -172 0
-92 -173 0
-96 -175 0
-98 -174 0
-96 -177 0
-97 -182 0
-93 -176 0
-94 -181 0
-94 -195 0
-92 -193 0
-97 -193 0
-94 -194 0
-98 -200 0
-97 -197 0
-92 -201 0
-94 -198 0
-97 -208 0
-98 -206 0
-98 -210 0
-97 -210 0
-93 -216 0
-97 -211 0
-92 -214 0
-96 -211 0
-95 -238 0
-93 -236 0
-97 -232 0
-92 -238 0
-93 -250 0
-94 -248 0
-95 -251 0
-93 -247 0
-92 -255 0
-97 -259 0
-95 -256 0
-95 -257 0
-94 -263 0
-95 -265 0
-94 -266 0
-98 -266 0
-93 -272 0
-92 -269 0
-94 -273 0
-92 -267 0
-103 -119 0
-100 -115 0
-102 -118 0
-103 -114 0
-100 -124 0
-100 -126 0
-105 -120 0
-102 -125 0
-99 -131 0
-99 -128 0
-101 -130 0
-99 -129 0
-102 -139 0
-105 -138 0
-103 -136 0
-102 -135 0
-103 -146 0
-101 -141 0
-102 -142 0
-104 -147 0
-102 -152 0
-105 -152 0
-101 -150 0
-103 -151 0
-105 -159 0
-104 -158 0
-102 -160 0
-99 -155 0
-102 -166 0
-99 -162 0
-101 -167 0
-99 -164 0
-99 -171 0
-101 -169 0
-100 -169 0
-102 -173 0
-100 -182 0
-99 -176 0
-103 -176 0
-100 -178 0
-105 -196 0
-102 -194 0
-100 -193 0
-101 -196 0
-99 -202 0
-105 -203 0
-102 -202 0
-103 -202 0
-102 -206 0
-99 -207 0
-104 -204 0
-100 -210 0
-102 -225 0
-104 -225 0
-99 -227 0
-100 -230 0
-100 -233 0
-100 -232 0
-100 -235 0
-99 -236 0
-100 -242 0
-103 -242 0
-105 -241 0
-105 -242 0
-105 -253 0
-101 -257 0
-103 -255 0
-103 -253 0
-104 -261 0
-99 -263 0
-103 -260 0
-103 -266 0
-105 -273 0
-101 -270 0
-104 -267 0
-100 -272 0
-106 -115 0
-107 -118 0
-107 -116 0
-108 -115 0
-106 -129 0
-110 -127 0
-110 -133 0
-109 -130 0
-110 -143 0
-108 -142 0
-112 -147 0
-110 -141 0
-106 -154 0
-109 -151 0
-111 -150 0
-110 -149 0
-106 -158 0
-108 -161 0
-111 -161 0
-108 -157 0
-110 -168 0
-111 -163 0
-106 -164 0
-110 -167 0
-112 -170 0
-110 -169 0
-107 -173 0
-111 -172 0
-110 -181 0
-111 -178 0
-111 -180 0
-112 -181 0
-108 -196 0
-111 -191 0
-108 -190 0
-107 -191 0
-109 -203 0
-110 -197 0
-111 -199 0
-108 -202 0
-109 -204 0
-111 -207 0
-107 -209 0
-110 -204 0
-109 -227 0
-108 -227 0
-109 -229 0
-109 -230 0
-111 -250 0
-110 -251 0
-109 -252 0
-109 -247 0
-110 -256 0
-106 -254 0
-110 -254 0
-109 -253 0
-111 -280 0
-108 -275 0
-112 -280 0
-111 -279 0
-116 -125 0
-113 -123 0
-115 -123 0
-113 -125 0
-115 -131 0
-118 -132 0
-117 -133 0
-116 -131 0
-116 -137 0
-118 -140 0
-118 -138 0
-113 -136 0
-116 -146 0
-118 -147 0
-117 -145 0
-119 -143 0
-117 -150 0
-115 -154 0
-113 -153 0
-119 -154 0
-114 -157 0
-119 -160 0
-116 -158 0
-118 -155 0
-117 -164 0
-115 -168 0
-113 -163 0
-117 -168 0
-118 -174 0
-119 -169 0
-117 -172 0
-118 -173 0
-114 -179 0
-116 -180 0
-116 -178 0
-114 -180 0
-113 -184 0
-115 -188 0
-117 -185 0
-119 -185 0
-118 -193 0
-116 -191 0
-115 -191 0
-119 -193 0
-116 -202 0
-119 -197 0
-118 -202 0
-117 -202 0
-114 -209 0
-116 -206 0
-116 -205 0
-113 -204 0
-115 -215 0
-113 -213 0
-114 -213 0
-114 -217 0
-119 -230 0
-117 -227 0
-118 -227 0
-116 -226 0
-118 -250 0
-115 -251 0
-117 -247 0
-113 -247 0
-117 -256 0
-119 -258 0
-113 -258 0
-118 -257 0
-116 -275 0
-119 -278 0
-118 -278 0
-118 -279 0
-124 -154 0
-122 -152 0
-126 -148 0
-125 -149 0
-126 -156 0
-122 -161 0
-125 -158 0
-122 -157 0
-125 -168 0
-124 -168 0
-123 -168 0
-125 -164 0
-120 -174 0
-120 -173 0
-122 -173 0
-123 -175 0
-120 -202 0
-123 -199 0
-124 -200 0
-120 -199 0
-125 -209 0
-120 -208 0
-125 -206 0
-122 -205 0
-124 -212 0
-123 -211 0
-122 -214 0
-126 -217 0
-123 -225 0
-126 -230 0
-125 -228 0
-122 -230 0
-123 -245 0
-123 -244 0
-125 -245 0
-124 -239 0
-120 -253 0
-124 -258 0
-126 -256 0
-122 -255 0
-124 -262 0
-126 -266 0
-125 -260 0
-126 -260 0
-120 -270 0
-125 -273 0
-121 -272 0
-120 -273 0
-126 -279 0
-126 -277 0
-122 -277 0
-120 -277 0
-130 -138 0
-129 -135 0
-131 -137 0
-130 -137 0
-127 -144 0
-127 -141 0
-127 -142 0
-129 -142 0
-130 -154 0
-132 -152 0
-132 -148 0
-130 -153 0
-133 -160 0
-131 -155 0
-131 -157 0
-127 -159 0
-127 -165 0
-127 -166 0
-130 -168 0
-131 -164 0
-128 -169 0
-132 -175 0
-127 -175 0
-129 -171 0
-130 -180 0
-129 -178 0
-129 -179 0
-127 -176 0
-127 -192 0
-131 -192 0
-127 -195 0
-130 -191 0
-127 -197 0
-130 -198 0
-129 -197 0
-128 -197 0
-131 -210 0
-131 -207 0
-131 -209 0
-129 -204 0
-133 -214 0
-129 -216 0
-129 -214 0
-132 -211 0
-131 -228 0
-133 -226 0
-127 -226 0
-127 -228 0
-131 -242 0
-133 -239 0
-133 -241 0
-130 -242 0
-128 -250 0
-131 -251 0
-133 -249 0
-132 -247 0
-133 -259 0
-133 -254 0
-127 -256 0
-133 -253 0
-140 -144 0
-135 -144 0
-135 -141 0
-135 -145 0
-135 -148 0
-139 -152 0
-138 -148 0
-134 -153 0
-139 -157 0
-137 -155 0
-134 -161 0
-136 -158 0
-136 -167 0
-134 -162 0
-138 -163 0
-139 -165 0
-134 -196 0
-135 -191 0
-140 -194 0
-138 -191 0
-135 -209 0
-139 -204 0
-137 -205 0
-136 -206 0
-138 -222 0
-137 -223 0
-135 -224 0
-135 -219 0
-137 -238 0
-137 -237 0
-136 -238 0
-138 -232 0
-134 -239 0
-140 -242 0
-138 -241 0
-140 -239 0
-134 -264 0
-136 -260 0
-139 -265 0
-134 -265 0
-135 -272 0
-135 -269 0
-138 -272 0
-139 -271 0
-137 -275 0
-136 -278 0
-138 -275 0
-139 -276 0
-145 -154 0
-141 -150 0
-144 -154 0
-141 -153 0
-143 -158 0
-142 -158 0
-142 -156 0
-147 -160 0
-147 -169 0
-144 -173 0
-143 -173 0
-141 -171 0
-146 -177 0
-147 -176 0
-147 -182 0
-143 -176 0
-146 -188 0
-144 -185 0
-147 -186 0
-142 -186 0
-143 -191 0
-145 -193 0
-143 -193 0
-145 -196 0
-144 -199 0
-142 -197 0
-143 -202 0
-146 -199 0
-142 -221 0
-144 -221 0
-146 -224 0
-144 -223 0
-143 -228 0
-141 -231 0
-145 -225 0
-146 -228 0
-145 -233 0
-146 -233 0
-143 -232 0
-145 -236 0
-144 -250 0
-142 -247 0
-142 -249 0
-141 -248 0
-144 -272 0
-145 -271 0
-141 -270 0
-146 -269 0
-144 -280 0
-142 -275 0
-146 -280 0
-147 -278 0
-151 -155 0
-152 -161 0
-151 -159 0
-154 -157 0
-152 -164 0
-150 -164 0
-153 -163 0
-150 -168 0
-149 -169 0
-154 -172 0
-148 -170 0
-151 -173 0
-149 -199 0
-149 -197 0
-154 -201 0
-148 -200 0
-154 -206 0
-152 -208 0
-152 -204 0
-153 -207 0
-152 -211 0
-148 -212 0
-153 -211 0
-151 -214 0
-154 -225 0
-148 -230 0
-153 -228 0
-148 -227 0
-149 -240 0
-149 -239 0
-151 -244 0
-149 -242 0
-153 -248 0
-152 -252 0
-150 -250 0
-152 -248 0
-151 -257 0
-150 -258 0
-153 -254 0
-148 -255 0
-154 -265 0
-148 -266 0
-148 -260 0
-153 -262 0
-148 -279 0
-152 -274 0
-150 -278 0
-148 -280 0
-157 -167 0
-158 -165 0
-160 -165 0
-155 -165 0
-160 -175 0
-159 -171 0
-157 -169 0
-157 -170 0
-160 -180 0
-156 -178 0
-158 -180 0
-161 -180 0
-160 -183 0
-161 -184 0
-156 -188 0
-159 -186 0
-161 -191 0
-156 -191 0
-155 -195 0
-157 -192 0
-157 -214 0
-160 -215 0
-157 -216 0
-158 -215 0
-155 -227 0
-156 -228 0
-155 -226 0
-158 -226 0
-155 -239 0
-156 -245 0
-159 -241 0
-156 -240 0
-155 -247 0
-158 -246 0
-160 -247 0
-159 -247 0
-159 -255 0
-157 -253 0
-158 -258 0
-160 -254 0
-158 -264 0
-156 -260 0
-158 -266 0
-159 -263 0
-160 -267 0
-160 -269 0
-156 -271 0
-158 -271 0
-159 -277 0
-159 -279 0
-160 -279 0
-155 -276 0
-166 -172 0
-163 -169 0
-162 -170 0
-165 -170 0
-167 -176 0
-165 -179 0
-165 -181 0
-163 -176 0
-163 -183 0
-163 -187 0
-165 -189 0
-166 -186 0
-166 -193 0
-165 -193 0
-166 -196 0
-162 -193 0
-165 -206 0
-167 -206 0
-167 -205 0
-162 -205 0
-166 -224 0
-162 -218 0
-167 -219 0
-168 -221 0
-168 -228 0
-163 -231 0
-166 -229 0
-163 -227 0
-167 -236 0
-162 -234 0
-166 -232 0
-166 -234 0
-163 -256 0
-163 -257 0
-164 -253 0
-168 -256 0
-168 -273 0
-167 -273 0
-164 -273 0
-166 -269 0
-167 -278 0
-162 -278 0
-163 -274 0
-164 -278 0
-169 -179 0
-172 -180 0
-170 -178 0
-170 -176 0
-175 -187 0
-169 -188 0
-174 -186 0
-170 -185 0
-169 -201 0
-169 -199 0
-172 -197 0
-172 -200 0
-172 -215 0
-172 -217 0
-173 -216 0
-170 -211 0
-169 -229 0
-175 -225 0
-175 -226 0
-172 -229 0
-171 -232 0
-175 -233 0
-175 -236 0
-169 -238 0
-174 -243 0
-173 -239 0
-174 -244 0
-172 -240 0
-170 -247 0
-172 -247 0
-175 -249 0
-174 -247 0
-173 -255 0
-171 -253 0
-169 -255 0
-169 -254 0
-172 -262 0
-173 -264 0
-170 -264 0
-173 -265 0
-171 -275 0
-175 -276 0
-170 -276 0
-170 -275 0
-181 -183 0
-177 -185 0
-179 -187 0
-177 -183 0
-178 -191 0
-182 -193 0
-177 -193 0
-182 -191 0
-182 -206 0
-177 -209 0
-179 -209 0
-178 -204 0
-180 -218 0
-177 -220 0
-176 -224 0
-181 -218 0
-179 -228 0
-178 -231 0
-180 -225 0
-180 -227 0
-181 -234 0
-180 -237 0
-180 -233 0
-179 -236 0
-179 -245 0
-179 -241 0
-180 -245 0
-182 -240 0
-180 -250 0
-181 -250 0
-177 -250 0
-180 -252 0
-178 -271 0
-178 -273 0
-181 -267 0
-178 -267 0
-181 -275 0
-182 -280 0
-177 -275 0
-178 -275 0
-186 -194 0
-189 -194 0
-183 -193 0
-188 -191 0
-187 -203 0
-189 -201 0
-183 -200 0
-184 -202 0
-186 -223 0
-184 -219 0
-183 -219 0
-189 -219 0
-184 -233 0
-185 -236 0
-183 -237 0
-187 -234 0
-186 -244 0
-188 -244 0
-185 -239 0
-189 -239 0
-184 -248 0
-189 -252 0
-186 -252 0
-185 -248 0
-189 -256 0
-183 -258 0
-184 -259 0
-187 -256 0
-183 -271 0
-187 -268 0
-186 -272 0
-183 -272 0
-195 -198 0
-191 -203 0
-194 -203 0
-191 -197 0
-190 -213 0
-190 -217 0
-194 -211 0
-195 -217 0
-193 -229 0
-196 -230 0
-192 -226 0
-190 -230 0
-192 -239 0
-196 -244 0
-192 -244 0
-192 -243 0
-194 -254 0
-192 -257 0
-191 -254 0
-196 -254 0
-194 -262 0
-191 -262 0
-194 -265 0
-194 -260 0
-190 -280 0
-190 -278 0
-196 -275 0
-192 -274 0
-203 -207 0
-202 -205 0
-197 -210 0
-199 -206 0
-201 -213 0
-197 -217 0
-199 -215 0
-199 -217 0
-198 -222 0
-197 -219 0
-203 -221 0
-199 -219 0
-202 -226 0
-203 -231 0
-203 -228 0
-202 -228 0
-202 -235 0
-203 -236 0
-202 -232 0
-203 -235 0
-197 -245 0
-200 -239 0
-200 -243 0
-202 -243 0
-199 -251 0
-199 -248 0
-201 -247 0
-199 -247 0
-203 -258 0
-197 -259 0
-198 -258 0
-199 -253 0
-202 -262 0
-202 -260 0
-199 -265 0
-200 -266 0
-198 -267 0
-198 -268 0
-199 -269 0
-202 -267 0
-209 -215 0
-210 -211 0
-205 -217 0
-208 -213 0
-204 -221 0
-208 -219 0
-210 -220 0
-207 -218 0
-208 -231 0
-205 -227 0
-206 -229 0
-207 -225 0
-204 -235 0
-210 -237 0
-204 -238 0
-208 -232 0
-207 -250 0
-205 -250 0
-209 -252 0
-209 -248 0
-206 -266 0
-209 -263 0
-210 -261 0
-204 -264 0
-210 -272 0
-208 -268 0
-208 -273 0
-204 -270 0
-204 -276 0
-207 -278 0
-206 -279 0
-204 -277 0
-212 -224 0
-216 -223 0
-213 -221 0
-215 -223 0
-214 -226 0
-212 -225 0
-214 -231 0
-217 -229 0
-215 -236 0
-215 -234 0
-213 -238 0
-211 -236 0
-215 -241 0
-216 -242 0
-216 -244 0
-213 -239 0
-211 -250 0
-215 -248 0
-215 -251 0
-211 -249 0
-216 -253 0
-216 -255 0
-215 -253 0
-212 -253 0
-213 -267 0
-217 -267 0
-212 -270 0
-217 -272 0
-220 -227 0
-218 -226 0
-222 -230 0
-218 -225 0
-219 -234 0
-222 -238 0
-218 -235 0
-223 -233 0
-220 -240 0
-218 -245 0
-223 -241 0
-220 -245 0
-218 -250 0
-220 -249 0
-224 -247 0
-219 -252 0
-222 -253 0
-223 -256 0
-220 -255 0
-221 -257 0
-224 -264 0
-218 -261 0
-223 -260 0
-219 -262 0
-223 -278 0
-224 -280 0
-218 -274 0
-219 -274 0
-228 -252 0
-230 -252 0
-225 -247 0
-227 -247 0
-226 -265 0
-231 -262 0
-228 -265 0
-231 -260 0
-231 -268 0
-226 -270 0
-225 -268 0
-225 -273 0
-229 -275 0
-227 -280 0
-225 -277 0
-226 -276 0
-234 -240 0
-234 -244 0
-237 -242 0
-233 -243 0
-234 -268 0
-237 -267 0
-238 -271 0
-237 -268 0
-232 -278 0
-236 -280 0
-233 -280 0
-234 -280 0
-243 -250 0
-240 -251 0
-239 -246 0
-243 -252 0
-242 -264 0
-243 -262 0
-241 -265 0
-245 -260 0
-244 -273 0
-242 -271 0
-243 -269 0
-245 -271 0
-249 -255 0
-246 -258 0
-246 -254 0
-251 -255 0
-248 -272 0
-246 -272 0
-249 -269 0
-250 -268 0
-250 -280 0
-251 -278 0
-247 -274 0
-252 -274 0
-258 -271 0
-256 -273 0
-258 -269 0
-253 -270 0
-262 -269 0
-261 -271 0
-260 -273 0
-266 -273 0
-264 -280 0
-262 -274 0
-264 -278 0
-260 -277 0
-270 -278 0
-271 -279 0
-269 -280 0
-271 -280 0
